Ti4
1.0
4.109066 0.000000 0.000000
0.000000 4.109066 0.000000
0.000000 0.000000 4.109066
Ti
4
direct
0.000000 0.000000 0.000000 Ti
0.000000 0.500000 0.500000 Ti
0.500000 0.000000 0.500000 Ti
0.500000 0.500000 0.000000 Ti
