Ti2
1.0
3.251500 0.000000 0.000000
0.000000 3.251500 0.000000
0.000000 0.000000 3.251500
Ti
2
direct
0.000000 0.000000 0.000000 Ti
0.500000 0.500000 0.500000 Ti
